letting n =  10
letting blocks =  [[1, 10], [2, 1], [2, 3], [3, 1], [3, 2], [3, 6], [4, 6], [5, 1], [5, 3], [6, 1], [6, 2], [6, 3], [6, 7], [6, 10], [7, 3], [7, 7], [8, 2], [8, 3], [8, 6], [8, 10], [9, 7], [10, 3], [10, 4], [10, 6]]
